# Solution for model r10_t9_m9_6 Batch Number: 1
# Finished Task: 9 / 9
# Makespan: 600.0, Total Distance: 126.0, Total Time: 5.7436
# R O S F Batch
0 0 13 0.0 0.0 -1
1 1 12 0.0 0.0 -1
2 2 -1 0.0 0.0 -1
3 3 -1 0.0 0.0 -1
4 4 -1 0.0 0.0 -1
5 5 -1 0.0 0.0 -1
6 6 16 0.0 0.0 -1
7 7 18 0.0 0.0 -1
8 8 17 0.0 0.0 -1
9 9 -1 0.0 0.0 -1
10 7 -1 546.0 576.0 0
11 7 10 526.0 546.0 0
12 1 -1 546.0 578.0 0
13 0 -1 578.0 600.0 0
14 7 15 439.0 476.0 0
15 7 11 484.0 515.0 0
16 6 -1 415.0 439.0 0
17 8 -1 515.0 536.0 0
18 7 14 366.0 395.0 0
